data/solutions/recovery/wellformed/moderate/flexible/wellformed_moderate_instance53/4.sol
Elapsed time: 0.02
Upper bound: 4230.0
Planning weighted value: 137977.0
C[0]=4230.0
C[1]=4130.0
C[2]=4070.0
C[3]=4003.0
C[4]=3906.0
y[0]=1
y[1]=1
y[2]=2
y[3]=4
y[4]=4
y[5]=0
y[6]=4
y[7]=2
y[8]=3
y[9]=1
y[10]=0
y[11]=3
y[12]=0
y[13]=1
y[14]=2
y[15]=1
y[16]=3
y[17]=1
y[18]=2
y[19]=0
