data/solutions/recovery/wellformed/moderate/flexible/wellformed_moderate_instance53/4.log

Log started (V12.6.3.0) Fri Apr 20 20:56:35 2018

New value for default parallel thread count: 1

Problem '/tmp/tmpDSRCWs.pyomo.lp' read.
Read time = 0.00 sec. (0.03 ticks)

Problem name         : /tmp/tmpDSRCWs.pyomo.lp
Objective sense      : Minimize
Variables            :     107  [Nneg: 1,  Binary: 100,  General Integer: 6]
Objective nonzeros   :       1
Linear constraints   :      51  [Less: 25,  Equal: 26]
  Nonzeros           :    1811
  RHS nonzeros       :      41

Variables            : Min LB: 0.000000         Max UB: 1.000000       
Objective nonzeros   : Min   : 1.000000         Max   : 1.000000       
Linear constraints   :
  Nonzeros           : Min   : 1.000000         Max   : 1636.000       
  RHS nonzeros       : Min   : 1.000000         Max   : 2.000000       
Tried aggregator 2 times.
MIP Presolve eliminated 20 rows and 5 columns.
Aggregator did 6 substitutions.
Reduced MIP has 25 rows, 96 columns, and 271 nonzeros.
Reduced MIP has 95 binaries, 1 generals, 0 SOSs, and 0 indicators.
Presolve time = 0.00 sec. (0.73 ticks)
Found incumbent of value 20339.000000 after 0.00 sec. (0.90 ticks)
Probing time = 0.00 sec. (0.08 ticks)
Cover probing fixed 0 vars, tightened 3 bounds.
Tried aggregator 1 time.
Reduced MIP has 25 rows, 96 columns, and 271 nonzeros.
Reduced MIP has 95 binaries, 1 generals, 0 SOSs, and 0 indicators.
Presolve time = 0.00 sec. (0.19 ticks)
Probing time = 0.00 sec. (0.06 ticks)
Clique table members: 19.
MIP emphasis: balance optimality and feasibility.
MIP search method: dynamic search.
Parallel mode: none, using 1 thread.
Root relaxation solution time = 0.00 sec. (0.08 ticks)

        Nodes                                         Cuts/
   Node  Left     Objective  IInf  Best Integer    Best Bound    ItCnt     Gap

*     0+    0                        20339.0000     1636.0000            91.96%
      0     0     4067.8000     8    20339.0000     4067.8000        7   80.00%
*     0+    0                         4520.0000     4067.8000            10.00%
      0     0     4132.7891     9     4520.0000      Fract: 5       26    8.57%
      0     0     4213.3335    13     4520.0000      Cuts: 10       40    6.78%
*     0+    0                         4230.0000     4213.3335             0.39%

Repeating presolve.
Tried aggregator 2 times.
MIP Presolve eliminated 10 rows and 60 columns.
MIP Presolve modified 8 coefficients.
Aggregator did 2 substitutions.
Reduced MIP has 13 rows, 34 columns, and 95 nonzeros.
Reduced MIP has 33 binaries, 1 generals, 0 SOSs, and 0 indicators.
Presolve time = 0.00 sec. (0.15 ticks)
Probing time = 0.00 sec. (0.03 ticks)
Tried aggregator 1 time.
Reduced MIP has 13 rows, 34 columns, and 95 nonzeros.
Reduced MIP has 33 binaries, 1 generals, 0 SOSs, and 0 indicators.
Presolve time = 0.00 sec. (0.06 ticks)
Represolve time = 0.00 sec. (0.34 ticks)
Probing time = 0.00 sec. (0.03 ticks)
Clique table members: 10.
MIP emphasis: balance optimality and feasibility.
MIP search method: dynamic search.
Parallel mode: none, using 1 thread.
Root relaxation solution time = 0.00 sec. (0.06 ticks)

        Nodes                                         Cuts/
   Node  Left     Objective  IInf  Best Integer    Best Bound    ItCnt     Gap

*     0+    0                         4230.0000     4213.3335             0.39%
      0     0     4213.3335     9     4230.0000     4213.3335       48    0.39%
      0     0        cutoff           4230.0000                     58    0.00%
Elapsed time = 0.01 sec. (5.13 ticks, tree = 0.01 MB, solutions = 3)

Cover cuts applied:  3
Mixed integer rounding cuts applied:  3
Gomory fractional cuts applied:  1

Root node processing (before b&c):
  Real time             =    0.01 sec. (5.13 ticks)
Sequential b&c:
  Real time             =    0.00 sec. (0.00 ticks)
                          ------------
Total (root+branch&cut) =    0.01 sec. (5.13 ticks)

Solution pool: 3 solutions saved.

MIP - Integer optimal solution:  Objective =  4.2300000000e+03
Solution time =    0.01 sec.  Iterations = 58  Nodes = 0
Deterministic time = 5.13 ticks  (521.37 ticks/sec)


Incumbent solution written to file '/tmp/tmpYqsZJX.cplex.sol'.
